[runlim] version:		1.10
[runlim] time limit:		311040000 seconds
[runlim] real time limit:	600 seconds
[runlim] space limit:		7759 MB
[runlim] argv[0]:		python3
[runlim] argv[1]:		-u
[runlim] argv[2]:		cp.py
[runlim] argv[3]:		P6
[runlim] start:			Sun Mar 22 23:19:46 2026
[runlim] main pid:		22679
Reading dataset from data/P6.txt...
Greedy span: 346 (347-1)
--------------------------------
Starting CP Optimizer with Initial UB = 347...
Mô hình CP đã xây dựng xong, bắt đầu giải...
 ! --------------------------------------------------- CP Optimizer 22.1.1.0 --
 ! Minimization problem - 471 variables, 53337 constraints
 ! Presolve      : 21415 extractables eliminated, 20559 constraints generated
 ! LogVerbosity         = Terse
 ! Initial process time : 0.38s (0.38s extraction + 0.00s propagation)
 !  . Log search space  : 3614.9 (before), 3614.9 (after)
 !  . Memory usage      : 18.6 MB (before), 18.6 MB (after)
 ! Using parallel search with 12 workers.
 ! ----------------------------------------------------------------------------
 !          Best Branches  Non-fixed    W       Branch decision
                        0        471                 -
 + New bound is 221
 *           336      488  1.36s        3      (gap is 34.23%)
 *           335      785  1.36s        3      (gap is 34.03%)
 *           290      425  1.36s        6      (gap is 23.79%)
 *           286      684  1.36s       10      (gap is 22.73%)
 *           285     1863  1.99s        5      (gap is 22.46%)
 *           284     2438  2.33s        5      (gap is 22.18%)
 *           279     3158  2.70s        6      (gap is 20.79%)
 *           278     8001  4.68s       12      (gap is 20.50%)
[runlim] sample:		76.4 time, 9.9 real, 500.3 MB
 *           277    19266  10.97s       1      (gap is 20.22%)
 *           276    21691  11.68s       1      (gap is 19.93%)
 *           275    26516  13.72s       4      (gap is 19.64%)
[runlim] sample:		164.6 time, 19.9 real, 512.8 MB
 *           274    42819  22.38s       9      (gap is 19.34%)
[runlim] sample:		255.9 time, 29.9 real, 521.5 MB
[runlim] sample:		350.8 time, 39.0 real, 527.1 MB
[runlim] sample:		437.5 time, 49.0 real, 530.5 MB
[runlim] sample:		528.7 time, 59.0 real, 532.8 MB
[runlim] sample:		624.3 time, 68.2 real, 535.5 MB
[runlim] sample:		716.1 time, 78.2 real, 538.4 MB
[runlim] sample:		808.9 time, 88.2 real, 540.5 MB
[runlim] sample:		902.0 time, 98.2 real, 542.4 MB
[runlim] sample:		996.3 time, 107.2 real, 543.9 MB
[runlim] sample:		1090.0 time, 117.2 real, 545.1 MB
[runlim] sample:		1185.3 time, 127.2 real, 546.8 MB
 *           273     279k  135.58s     11      (gap is 19.05%)
[runlim] sample:		1280.3 time, 136.3 real, 547.9 MB
[runlim] sample:		1375.2 time, 146.3 real, 548.9 MB
[runlim] sample:		1469.5 time, 156.3 real, 550.9 MB
[runlim] sample:		1568.0 time, 165.3 real, 552.0 MB
[runlim] sample:		1661.5 time, 175.3 real, 553.5 MB
[runlim] sample:		1754.1 time, 185.3 real, 554.6 MB
[runlim] sample:		1849.2 time, 194.5 real, 555.6 MB
[runlim] sample:		1944.8 time, 204.5 real, 556.5 MB
[runlim] sample:		2035.3 time, 214.5 real, 558.1 MB
[runlim] sample:		2130.3 time, 224.5 real, 558.6 MB
[runlim] sample:		2223.1 time, 233.6 real, 559.6 MB
[runlim] sample:		2316.8 time, 243.6 real, 560.6 MB
[runlim] sample:		2412.8 time, 253.6 real, 561.4 MB
[runlim] sample:		2509.7 time, 262.6 real, 562.1 MB
[runlim] sample:		2604.4 time, 272.6 real, 562.9 MB
[runlim] sample:		2697.4 time, 282.7 real, 563.4 MB
[runlim] sample:		2791.3 time, 291.7 real, 564.4 MB
[runlim] sample:		2884.4 time, 301.7 real, 565.0 MB
[runlim] sample:		2980.3 time, 311.7 real, 565.4 MB
[runlim] sample:		3074.1 time, 320.8 real, 566.3 MB
[runlim] sample:		3165.8 time, 330.8 real, 566.4 MB
[runlim] sample:		3258.4 time, 340.8 real, 567.1 MB
[runlim] sample:		3346.3 time, 350.8 real, 567.4 MB
[runlim] sample:		3434.9 time, 359.9 real, 568.0 MB
[runlim] sample:		3527.8 time, 369.9 real, 568.9 MB
[runlim] sample:		3622.4 time, 379.9 real, 569.0 MB
[runlim] sample:		3717.3 time, 389.0 real, 569.3 MB
[runlim] sample:		3815.0 time, 399.0 real, 569.8 MB
[runlim] sample:		3910.6 time, 409.0 real, 570.1 MB
[runlim] sample:		4006.5 time, 418.0 real, 570.4 MB
[runlim] sample:		4097.5 time, 428.0 real, 570.9 MB
[runlim] sample:		4187.5 time, 438.0 real, 571.0 MB
[runlim] sample:		4278.8 time, 447.2 real, 571.5 MB
[runlim] sample:		4375.1 time, 457.2 real, 571.8 MB
[runlim] sample:		4467.0 time, 467.2 real, 571.9 MB
[runlim] sample:		4560.2 time, 477.2 real, 572.4 MB
[runlim] sample:		4656.0 time, 486.3 real, 572.6 MB
[runlim] sample:		4752.8 time, 496.3 real, 573.3 MB
[runlim] sample:		4846.1 time, 506.3 real, 573.4 MB
[runlim] sample:		4940.8 time, 515.4 real, 573.8 MB
[runlim] sample:		5038.5 time, 525.4 real, 574.5 MB
[runlim] sample:		5136.0 time, 535.4 real, 574.9 MB
[runlim] sample:		5235.1 time, 544.4 real, 575.0 MB
[runlim] sample:		5332.6 time, 554.4 real, 575.3 MB
[runlim] sample:		5428.1 time, 564.4 real, 575.5 MB
[runlim] sample:		5522.6 time, 573.5 real, 575.8 MB
[runlim] sample:		5623.1 time, 583.5 real, 576.1 MB
[runlim] sample:		5718.7 time, 593.5 real, 576.8 MB
[runlim] end:			Sun Mar 22 23:29:46 2026
[runlim] status:		out of time
[runlim] result:		2
[runlim] children:		6159
[runlim] real:			600.07 seconds
[runlim] time:			5782.06 seconds
[runlim] space:			576.9 MB
[runlim] samples:		6166
